A
B
C
D
E
F
G
H
I
J
K
CITYEND 0 5 20 21 22 23 24 25 26 27 15
5 0 6 20 21 22 23 24 25 26 27
20 6 0 7 20 21 22 23 24 25 26
21 20 7 0 8 20 21 22 23 24 25
22 21 20 8 0 9 20 21 22 23 24
23 22 21 20 9 0 10 20 21 22 23
24 23 22 21 20 10 0 11 20 21 22
25 24 23 22 21 20 11 0 12 20 21
26 25 24 23 22 21 20 12 0 13 20
27 26 25 24 23 22 21 20 13 0 14
15 27 26 25 24 23 22 21 20 14 0